Version identifier: 20.1.0.0 | 2020-11-10 | 9bedb6d68
Tried aggregator 2 times.
MIP Presolve eliminated 987 rows and 548 columns.
MIP Presolve modified 2400 coefficients.
Aggregator did 120 substitutions.
Reduced MIP has 1407 rows, 1102 columns, and 4655 nonzeros.
Reduced MIP has 219 binaries, 883 generals, 0 SOSs, and 0 indicators.
Presolve time = 0.01 sec. (5.61 ticks)
Found incumbent of value 3053.000000 after 0.03 sec. (11.49 ticks)
Probing fixed 30 vars, tightened 271 bounds.
Probing time = 0.00 sec. (0.92 ticks)
Tried aggregator 1 time.
Detecting symmetries...
MIP Presolve eliminated 615 rows and 30 columns.
MIP Presolve modified 95 coefficients.
Reduced MIP has 792 rows, 1072 columns, and 2660 nonzeros.
Reduced MIP has 247 binaries, 825 generals, 0 SOSs, and 0 indicators.
Presolve time = 0.01 sec. (2.86 ticks)
Probing time = 0.00 sec. (0.24 ticks)
Clique table members: 65.
MIP emphasis: balance optimality and feasibility.
MIP search method: dynamic search.
Parallel mode: deterministic, using up to 24 threads.
Root relaxation solution time = 0.01 sec. (2.69 ticks)

        Nodes                                         Cuts/
   Node  Left     Objective  IInf  Best Integer    Best Bound    ItCnt     Gap

*     0+    0                         3053.0000        0.0000           100.00%
*     0+    0                           78.0000        0.0000           100.00%
      0     0        0.0000    41       78.0000        0.0000      286  100.00%
      0     0        0.0000    39       78.0000      Cuts: 62      320  100.00%
*     0+    0                           29.0000        0.0000           100.00%
      0     0        0.0000    62       29.0000      Cuts: 72      384  100.00%
      0     0        0.0000    78       29.0000      Cuts: 32      438  100.00%
*     0+    0                           14.0000        0.0000           100.00%
      0     0        cutoff             14.0000       14.0000      438    0.00%
Elapsed time = 0.94 sec. (96.52 ticks, tree = 0.01 MB, solutions = 4)

Implied bound cuts applied:  21
Flow cuts applied:  4
Mixed integer rounding cuts applied:  8
Zero-half cuts applied:  27
Lift and project cuts applied:  8
Gomory fractional cuts applied:  13

Root node processing (before b&c):
  Real time             =    0.94 sec. (96.63 ticks)
Parallel b&c, 24 threads:
  Real time             =    0.00 sec. (0.00 ticks)
  Sync time (average)   =    0.00 sec.
  Wait time (average)   =    0.00 sec.
                          ------------
Total (root+branch&cut) =    0.94 sec. (96.63 ticks)

Solution status = Optimal
Solution LB = 14
Solution UB = 14
Runtime = 0.94331 seconds
	Command being timed: "/home/min/git_repos/CS598MEBProject/CNT-ILP/build/cnt -s 2 ./output/k8_n15/simC_c1_k8_n15_u1_s3_del02.input-right.cnp"
	User time (seconds): 15.48
	System time (seconds): 0.05
	Percent of CPU this job got: 1611%
	Elapsed (wall clock) time (h:mm:ss or m:ss): 0:00.96
	Average shared text size (kbytes): 0
	Average unshared data size (kbytes): 0
	Average stack size (kbytes): 0
	Average total size (kbytes): 0
	Maximum resident set size (kbytes): 84904
	Average resident set size (kbytes): 0
	Major (requiring I/O) page faults: 0
	Minor (reclaiming a frame) page faults: 18214
	Voluntary context switches: 4116
	Involuntary context switches: 2006
	Swaps: 0
	File system inputs: 0
	File system outputs: 16
	Socket messages sent: 0
	Socket messages received: 0
	Signals delivered: 0
	Page size (bytes): 4096
	Exit status: 0
